RAW/D/fspd/SCA8-7.vrpspd_seed-8.out
1052.0337	16.199	20.261
