RAW/D/fspd/SCA8-7.vrpspd_seed-8.sol
Route #1: 20 17 23 10 39 35 18
Route #2: 28 5 16 40
Route #3: 9 36 6 32
Route #4: 25 11 14 12 4 3
Route #5: 27 22 37 30 44 38 47
Route #6: 34 19 7 41 48
Route #7: 50 33 21 31 46 1 29
Route #8: 42 2 49 43 26
Route #9: 24 13 15 8 45
Cost 10520337.000000